p td 22 195
2 1
3 1
3 2
4 1
4 3
5 4
5 2
5 3
5 1
6 3
6 5
6 1
6 4
7 1
7 2
7 4
7 3
7 6
8 2
8 4
8 1
8 5
8 7
8 3
8 6
9 1
9 5
9 4
9 6
9 8
9 3
9 7
9 2
10 2
10 6
10 3
10 8
10 5
10 1
10 4
10 7
11 7
11 6
11 2
11 10
11 4
11 5
11 3
11 9
11 1
12 2
12 3
12 7
12 10
12 11
12 4
12 6
12 1
12 9
13 10
13 6
13 7
13 1
13 12
13 8
13 5
13 2
13 9
13 4
13 3
14 6
14 10
14 4
14 9
14 12
14 1
14 13
14 7
14 3
14 8
14 11
15 9
15 2
15 12
15 1
15 14
15 5
15 11
15 4
15 8
15 7
15 3
16 12
16 13
16 4
16 5
16 7
16 10
16 2
16 15
16 9
16 14
16 1
16 6
16 8
17 3
17 10
17 14
17 2
17 15
17 5
17 9
17 8
17 7
17 11
17 12
17 16
17 6
17 4
18 11
18 12
18 14
18 1
18 15
18 2
18 13
18 8
18 3
18 9
18 5
18 4
18 17
18 7
19 9
19 14
19 1
19 13
19 16
19 7
19 2
19 11
19 5
19 4
19 12
19 6
19 10
20 18
20 16
20 3
20 15
20 12
20 17
20 4
20 5
20 13
20 14
20 1
20 9
20 7
20 6
20 2
21 11
21 16
21 1
21 3
21 20
21 7
21 13
21 17
21 6
21 10
21 14
21 18
21 15
21 2
21 12
21 8
22 21
22 10
22 17
22 8
22 14
22 6
22 19
22 1
22 4
22 20
22 7
22 16
22 3
22 9
22 2
22 15
22 5
22 11
